width = 60;
n = 73;
dimensions = [|2, 9
|2, 3
|3, 7
|3, 18
|3, 2
|3, 5
|10, 9
|8, 9
|8, 3
|2, 9
|2, 12
|6, 2
|6, 5
|9, 18
|3, 9
|3, 9
|5, 18
|5, 7
|6, 2
|6, 1
|6, 9
|6, 9
|3, 2
|3, 1
|4, 3
|4, 4
|12, 18
|12, 3
|16, 18
|12, 3
|12, 4
|33, 14
|6, 6
|6, 7
|11, 7
|11, 2
|3, 7
|3, 2
|14, 13
|14, 5
|14, 6
|16, 5
|16, 3
|14, 6
|14, 7
|6, 5
|6, 6
|2, 10
|2, 1
|7, 5
|7, 3
|23, 6
|12, 9
|12, 13
|6, 13
|4, 10
|4, 1
|5, 5
|5, 7
|21, 5
|21, 3
|16, 5
|16, 7
|21, 12
|25, 15
|25, 7
|6, 15
|6, 7
|10, 12
|10, 12
|13, 5
|13, 3
|34, 6|];